NAME : pr226.141252.tour
COMMENT : Cost = 0_141252
COMMENT : Found by LKH [Keld Helsgaun] Thu Nov 16 16:24:02 2017
TYPE : TOUR
DIMENSION : 245
TOUR_SECTION
1
2
227
3
228
4
229
5
230
74
231
6
232
75
233
8
234
7
235
76
236
77
237
78
238
72
239
9
240
79
241
10
242
80
81
82
83
84
85
86
244
11
243
14
15
16
67
17
18
19
65
20
64
63
62
61
60
59
58
57
56
55
54
53
52
51
50
21
22
23
24
25
26
27
28
49
48
33
32
31
29
30
34
35
36
37
44
45
46
47
43
42
38
39
40
41
87
95
96
89
88
97
98
90
91
99
100
92
93
101
102
94
144
137
138
146
145
139
140
141
142
143
150
148
149
147
151
152
153
154
155
156
157
158
159
160
161
162
163
164
165
166
167
168
169
170
171
172
173
174
175
176
177
178
179
180
181
182
183
184
185
186
187
188
189
190
191
192
193
194
195
196
197
198
199
200
201
202
203
204
205
206
207
208
209
210
211
212
213
214
215
216
217
218
219
220
221
222
223
224
225
226
125
132
130
124
123
122
121
120
119
126
128
127
129
131
133
134
135
136
110
118
117
109
108
116
115
107
106
114
113
104
105
112
111
103
66
70
69
68
71
13
12
245
73
-1
EOF
